a
1	# Evident \u{2014} Project Invariants
2	
3	## What This Is
4	
5	Evident is a constraint programming language where programs are collections of
6	constraints over sets, and a Z3 SMT solver finds satisfying assignments.  The
7	central abstraction is `schema`: a named set defined by membership conditions.
8	Querying a schema asks whether a satisfying assignment exists.
9	
10	## Language Definitions
11	
12	| Thing | Where defined |
13	|---|---|
14	| Grammar (authoritative) | `parser/src/grammar.lark` |
15	| Unicode normalizer (\u{2208}\u{2192}`__IN__` etc.) | `parser/src/normalizer.py` |
16	| AST node types | `parser/src/ast.py` |
17	| Lark \u{2192} AST transformer | `parser/src/transformer.py` |
18	| Language spec (prose) | `spec/` (00-overview through 09-stdlib) |
19	| Design docs | `language-design.md`, `vision.md`, `models-not-programs.md` |
20	| Examples | `examples/` |
21	
22	## Runtime Architecture
23	
24	The runtime is a pipeline.  Each stage is a separate file under `runtime/src/`:
25	
26	```
27	source text
28	  \u{2192} normalizer.py        Unicode symbols \u{2192} __TOKEN__ keywords
29	  \u{2192} grammar.lark         Lark Earley parser
30	  \u{2192} transformer.py       Lark tree \u{2192} AST (ast.py nodes)
31	  \u{2192} sorts.py             SortRegistry: maps type names to Z3 sorts
32	  \u{2192} instantiate.py       Creates Z3 constants for schema variables;
33	                         expands sub-schema fields (task.duration, \u{2026})
34	  \u{2192} translate.py         AST expressions/constraints \u{2192} Z3 expressions
35	  \u{2192} evaluate.py          EvidentSolver: runs the Z3 Solver, extracts model
36	  \u{2192} runtime.py           EvidentRuntime: top-level API (load_source, query)
37	```
38	
39	Supporting modules:
40	- `env.py` \u{2014} immutable variable environment (name \u{2192} Z3 expr)
41	- `quantifiers.py` \u{2014} \u{2200} / \u{2203} constraint translation
42	- `compose.py` \u{2014} names-match schema composition
43	- `evidence.py` \u{2014} derivation trees returned from queries
44	- `sets.py` \u{2014} set/array constraint translation
45	- `sorts.py` \u{2014} Z3 sort registry; also owns enum variant name \u{2192} constructor map
46	- `fixedpoint.py` \u{2014} forward implication rules (A, B \u{21d2} C) via Z3 Fixedpoint
47	- `ast_types.py` \u{2014} re-exports parser AST so runtime shares the same class objects
48	  (critical: isinstance checks break if two separate module instances exist)
49	
50	## Key Invariants
51	
52	**Parser**
53	- The grammar is the single source of truth for syntax.  The normalizer runs
54	  first and converts Unicode operators to `__TOKEN__` form before Lark sees the
55	  source, so the grammar only contains ASCII tokens for operators.
56	- `normalizer.py` maps both directions: Unicode symbols *and* word keywords
57	  (`in`, `not in`, `subset`, `superset`, `mapsto`) to the same `__TOKEN__`.
58	  Adding a new keyword requires updating the normalizer *and* the grammar.
59	
60	**AST**
61	- Runtime files import AST types from `runtime/src/ast_types.py`, not directly
62	  from `parser/src/ast.py`.  `ast_types.py` re-exports via a proper package
63	  import so all code shares one class identity \u{2014} two separate `importlib.util`
64	  loads produce different class objects and break `isinstance`.
65	
66	**Sorts and enums**
67	- `SortRegistry` is the single owner of all Z3 sorts and enum constructors.
68	- Enum variant names are **global** and must be unique across all enum types.
69	  `declare_algebraic` raises `ValueError` on duplicate variant names.
70	- `type Color = Red | Green | Blue` declares a named enum.
71	- `x \u{2208} Red | Green | Blue` (inline enum) auto-declares an anonymous enum named
72	  `_Enum_<sorted_variants>` and is equivalent to declaring the type separately.
73	
74	**Variable scoping**
75	- Variables declared inside a schema (`x \u{2208} Nat`) are local to that schema's
76	  query.  Independent queries do not share environments.
77	- Composed sub-schemas get a dotted prefix: `task \u{2208} Task` expands into
78	  `task.id`, `task.duration`, etc. in the parent environment.  The bare `task`
79	  variable is not created; only the leaf fields exist in Z3.
80	- Type names (e.g. `Color`) can be reused as variable names inside a schema
81	  without conflict \u{2014} they occupy different namespaces.
82	
83	**Z3 safety**
84	- Z3's C library is not safe for concurrent use from multiple threads.
85	- The IDE backend runs `/sample` and `/ranges` in isolated subprocesses via
86	  `ide/backend/z3_worker.py` to prevent server crashes.
87	- `/ranges` results are cached (LRU, 128 entries) keyed by request hash.
88	  `/sample` is intentionally **not** cached \u{2014} results are random.
89	- Push/pop inside a single subprocess is safe.  Never use push/pop across
90	  request boundaries in the web server process.
91	
92	**Sub-schema field access**
93	- `task.duration` in source is parsed as `BinaryExpr(×, Identifier('task'),
94	  FieldAccess('.', 'duration'))` by the grammar (juxt-dot ambiguity).
95	  `translate.py` intercepts this pattern and resolves it as a dotted env
96	  lookup before evaluating operands.
97	
98	## IDE
99	
100	```
101	ide/
102	  backend/
103	    main.py          FastAPI app; /parse, /evaluate, /ranges, /sample, /transfer
104	    z3_worker.py     Subprocess worker for Z3 isolation
105	    ranges.py        Binary-search minimum finder (no Z3 Optimize)
106	    sampler.py       blocking_clause_sample, random_seed_sample, grid_sample
107	  frontend/
108	    editor.js        Monaco setup + LaTeX-style keyword\u{2192}symbol substitution
109	    evident-lang.js  Monaco Monarch tokenizer + dark theme
110	    schema-panel.js  Schema selector and variable binding inputs
111	    samples.js       Sample table; accumulates unique samples across runs
112	    ranges.js        Variable range bars
113	    scatter.js       2D plot: scatter (num×num), strip (enum×num), count bars (enum)
114	  tests/
115	    test_ide.py      Playwright end-to-end tests (server must be on :8765)
116	```
117	
118	**Running the IDE**
119	
120	```bash
121	uvicorn ide.backend.main:app --port 8765
122	# then open http://localhost:8765/app/
123	```
124	
125	**Running tests**
126	
127	```bash
128	pytest runtime/tests/ parser/tests/     # unit tests (fast, ~2s)
129	pytest ide/tests/test_ide.py            # Playwright e2e (requires server on :8765)
130	```
